1686865
0,53,12,64,19,3,47,62,15,1,44,26,16,8,57,14,58,35,7,67,34,50,38,61,36,52,49,27,30,43,9,17,56,32,51,13,21,42,37,66,6,33,45,54,25,65,10,63,20,2,28,24,29,40,5,59,22,48,18,4,39,55,31,11,41,60,23,46,0